
NbMonths = 6;
HoursMonth = 384; 
CostHold  = 0.5;
StartHold = 0;
EndHold   = 50;
MaxHold   = 100;


Prod = {Prod1, Prod2, Prod3, Prod4, Prod5, Prod6, Prod7};
Process = {Grind, VDrill, HDrill, Bore, Plane};


ProfitProd = [10, 6, 8, 4, 11, 9, 3];


ProcessProd = [|
  0.5,  0.7,  0.0,  0.0,  0.3,  0.2,  0.5 |
  0.1,  0.2,  0.0,  0.3,  0.0,  0.6,  0.0 |
  0.2,  0.0,  0.8,  0.0,  0.0,  0.0,  0.6 |
  0.05, 0.03, 0.0,  0.07, 0.1,  0.0,  0.08|
  0.0,  0.0,  0.01, 0.0,  0.05, 0.0,  0.05|];


MarketProd = [|
  500, 1000,  300,  300,  800,  200,  100|
  600,  500,  200,    0,  400,  300,  150|
  300,  600,    0,    0,  500,  400,  100|
  200,  300,  400,  500,  200,    0,  100|
    0,  100,  500,  100, 1000,  300,    0|
  500,  500,  100,  300, 1100,  500,   60|]; 

NumProcess = [4, 2, 3, 1, 1];
NumDown = [2, 2, 3, 1, 1];
